
se = 40; % nombre de sessions
gr = 20; % nombre de grups de treball
cl = 7; % nombre de slots
minPapersPerSlot = 3; % minim nombre d'articles per sessio i slot
maxSesionsPar = 14; % maxim nombre de sessions paraleles

npMax = [6, 4, 6, 4, 5, 3, 5]; % nombre maxim de papers per slot

np = [9, 9, 7, 7, 13, 3, 5, 13, 3, 5, 3, 3, 15, 9, 4, 3, 4, 6, 13, 4, 12, 13, 3, 9, 14, 15, 9, 3, 16, 15, 11, 4, 11, 5, 3, 14, 9, 3, 12, 4]; % nombre de papers acceptats a cada sessio

WG = [ {1}, {}, {2}, {3,4,5}, {6}, {}, {7}, {8,9}, {}, {}, {10,11,12}, {13,14,15}, {}, {16}, {17}, {18}, {19}, {20}, {}, {}, {1,2,3}, {4}, {5,6}, {7}, {8}, {9,10}, {11}, {12,13,14}, {15}, {16}, {17}, {18}, {19,20,1}, {}, {2,3,4}, {5}, {6}, {7}, {8,9,10}, {11} ]; % grups per sessio

